Total weight: 1330.074199369987
Route 1: 0 5 98 42 92 95 59 99 83 18 52 69 76 12 73 22 41 40 53 6 94 13 43 97 96 93 37 100 91 17 60 89 70 1 77 80 0 
Route 2: 0 30 88 82 61 85 15 57 87 84 8 7 51 81 79 78 34 3 68 24 54 55 25 56 74 2 58 0 
Route 3: 0 27 31 62 63 11 47 45 16 44 14 38 86 26 50 10 90 20 9 35 66 32 0 
Route 4: 0 28 33 29 65 71 64 36 49 19 46 48 0 
Route 5: 0 21 72 75 23 67 39 4 0 
